
******************************************************************************
This program contains Ipopt, a library for large-scale nonlinear optimization.
 Ipopt is released as open source code under the Eclipse Public License (EPL).
         For more information visit http://projects.coin-or.org/Ipopt

This version of Ipopt was compiled from source code available at
    https://github.com/IDAES/Ipopt as part of the Institute for the Design of
    Advanced Energy Systems Process Systems Engineering Framework (IDAES PSE
    Framework) Copyright (c) 2018-2019. See https://github.com/IDAES/idaes-pse.

This version of Ipopt was compiled using HSL, a collection of Fortran codes
    for large-scale scientific computation.  All technical papers, sales and
    publicity material resulting from use of the HSL codes within IPOPT must
    contain the following acknowledgement:
        HSL, a collection of Fortran codes for large-scale scientific
        computation. See http://www.hsl.rl.ac.uk.
******************************************************************************

This is Ipopt version 3.13.2, running with linear solver ma27.

Number of nonzeros in equality constraint Jacobian...:      928
Number of nonzeros in inequality constraint Jacobian.:        0
Number of nonzeros in Lagrangian Hessian.............:      806

Total number of variables............................:      403
                     variables with only lower bounds:      124
                variables with lower and upper bounds:      217
                     variables with only upper bounds:        0
Total number of equality constraints.................:      402
Total number of inequality constraints...............:        0
        inequality constraints with only lower bounds:        0
   inequality constraints with lower and upper bounds:        0
        inequality constraints with only upper bounds:        0

iter    objective    inf_pr   inf_du lg(mu)  ||d||  lg(rg) alpha_du alpha_pr  ls
   0  0.0000000e+00 1.12e+00 1.11e-16  -1.0 0.00e+00    -  0.00e+00 0.00e+00   0
   1  1.4591011e-01 9.69e-01 6.72e+04  -1.0 1.58e+05    -  3.45e-01 1.48e-01h  1
   2  2.1419561e-01 9.37e-01 6.74e+04  -1.0 1.82e+05    -  5.04e-01 3.41e-02h  1
   3  1.1604676e+01 2.78e-01 4.61e+04  -1.0 1.77e+05    -  5.14e-01 9.90e-01h  1
   4  1.4056452e+01 3.50e-02 2.76e+03  -1.0 1.98e+04    -  7.99e-01 9.90e-01h  1
   5  1.4111168e+01 9.40e-04 3.22e+02  -1.0 1.00e+03    -  9.87e-01 9.90e-01h  1
   6  1.4185429e+01 7.16e-04 1.47e+04  -1.0 1.46e+03    -  9.89e-01 9.90e-01h  1
   7  1.4387447e+01 4.61e-04 1.74e+04  -1.0 3.90e+03    -  9.90e-01 9.90e-01H  1
   8  1.4111051e+01 1.11e-03 7.26e+07  -3.8 9.87e+03    -  9.42e-01 5.45e-01f  1
   9  1.4110525e+01 1.12e-06 2.60e+04  -3.8 5.44e+00    -  1.00e+00 1.00e+00h  1
In iteration 9, 31 Slacks too small, adjusting variable bounds
iter    objective    inf_pr   inf_du lg(mu)  ||d||  lg(rg) alpha_du alpha_pr  ls
  10  1.4110497e+01 1.74e-10 4.02e+08  -3.8 5.48e-01    -  1.00e+00 1.00e+00h  1
  11  1.4110497e+01 8.74e-12 2.38e-04  -3.8 2.27e-03    -  1.00e+00 1.00e+00h  1
  12  1.4110346e+01 3.94e-12 1.44e+06  -9.0 2.95e+00    -  1.00e+00 9.99e-01F  1
  13  1.4110346e+01 2.62e-12 2.06e-10  -9.0 1.78e-05    -  1.00e+00 1.00e+00h  1

Number of Iterations....: 13

                                   (scaled)                 (unscaled)
Objective...............:   1.4110345974593766e+01    1.4110345974593766e+01
Dual infeasibility......:   2.0554580260068178e-10    2.0554580260068178e-10
Constraint violation....:   2.6245672302138701e-12    2.6245672302138701e-12
Complementarity.........:   9.0909107235400405e-10    9.0909107235400405e-10
Overall NLP error.......:   1.5135732728884630e-10    9.0909107235400405e-10


Number of objective function evaluations             = 16
Number of objective gradient evaluations             = 14
Number of equality constraint evaluations            = 16
Number of inequality constraint evaluations          = 0
Number of equality constraint Jacobian evaluations   = 14
Number of inequality constraint Jacobian evaluations = 0
Number of Lagrangian Hessian evaluations             = 13
Total CPU secs in IPOPT (w/o function evaluations)   =      0.027
Total CPU secs in NLP function evaluations           =      0.216

EXIT: Optimal Solution Found.
